# Solution for model GasLib-40
# Objective value = 1.0836390377418365e+01
loadshed[innode_1] 0
loadshed[innode_2] 0
loadshed[innode_3] 0
loadshed[innode_4] 0
loadshed[innode_5] 0
loadshed[innode_6] 0
loadshed[innode_7] 0
loadshed[innode_8] 0
loadshed[source_1] -2.9417942284337784e-01
loadshed[source_2] 5.7812333558650786e-02
loadshed[source_3] 3.0491267304685243e-01
loadshed[sink_1] 0
loadshed[sink_2] 0
loadshed[sink_3] 0
loadshed[sink_4] 0
loadshed[sink_5] 0
loadshed[sink_6] 0
loadshed[sink_7] 0
loadshed[sink_8] 0
loadshed[sink_9] 0
loadshed[sink_10] 0
loadshed[sink_11] 0
loadshed[sink_12] 6.6260730970201465e-01
loadshed[sink_13] 0
loadshed[sink_14] 0
loadshed[sink_15] 0
loadshed[sink_16] 0
loadshed[sink_17] 0
loadshed[sink_18] 0
loadshed[sink_19] 0
loadshed[sink_20] 0
loadshed[sink_21] 0
loadshed[sink_22] 0
loadshed[sink_23] 0
loadshed[sink_24] 0
loadshed[sink_25] 0
loadshed[sink_26] 0
loadshed[sink_27] 0
loadshed[sink_28] 0
loadshed[sink_29] 0
flow[source_1,sink_3] 2.0459718445159371e+02
flow[innode_1,sink_16] 1.6354166666666970e+01
flow[innode_6,sink_13] 4.5926180688300065e+00
flow[sink_13,sink_14] -1.1761548597836661e+01
flow[sink_14,sink_10] -2.8115715264503706e+01
flow[sink_25,sink_26] 176.151819441876
flow[sink_26,sink_9] 1.2379723207793799e+02
flow[sink_9,sink_18] 1.0744306541127132e+02
flow[sink_26,sink_4] 3.6000420697271352e+01
flow[sink_4,sink_20] -4.1970123514040779e+01
flow[sink_18,sink_6] 9.1088898744604649e+01
flow[sink_25,innode_8] -1.7188885111825732e+02
flow[sink_6,sink_7] 4.2026398744603739e+01
flow[sink_6,sink_22] 3.2708333333333641e+01
flow[sink_7,sink_24] 3.8226109622581639e+01
flow[sink_22,sink_1] 1.6354166666666970e+01
flow[sink_24,sink_21] 2.1871942955914971e+01
flow[sink_21,sink_12] 5.5177762892483022e+00
flow[sink_7,sink_5] -1.2553877544643925e+01
flow[sink_5,sink_17] -2.8908044211310539e+01
flow[sink_17,sink_4] -6.1616377544645729e+01
flow[sink_17,sink_8] 1.6354166666668334e+01
flow[sink_3,sink_23] 16.3541666666697
flow[sink_8,sink_20] 0
flow[sink_25,sink_20] 5.8324290180707607e+01
flow[sink_25,sink_15] -83.5340432398237
flow[sink_15,sink_29] -9.9888209906490374e+01
flow[sink_29,sink_28] 1.6354166666667879e+01
flow[sink_29,sink_2] 1.6354166666684250e+01
flow[sink_2,sink_15] 0
flow[sink_29,innode_7] -1.4895070990650913e+02
flow[innode_4,sink_19] 4.2210248538823635e+01
flow[sink_19,innode_3] 7.7178215264503820e+01
flow[innode_4,innode_5] 6.7676300059012533e+01
flow[sink_27,innode_5] -6.7676300059012533e+01
flow[sink_27,sink_19] 5.1322133392345904e+01
flow[sink_10,sink_11] 3.2708333333333641e+01
flow[sink_10,innode_2] 0
flow[sink_10,innode_3] -7.7178215264503820e+01
flow[innode_6,sink_25] -4.5926180688300065e+00
flow[sink_11,innode_1] 1.6354166666666970e+01
flow[sink_19,innode_2] 0
flow[source_3,innode_4] 1.0988654859783614e+02
flow[source_2,innode_7] 1.4895070990650913e+02
flow[sink_3,innode_8] 1.7188885111825732e+02
pressure[innode_1] 7.4871628460732225e+01
pressure[innode_2] 7.9303205279365983e+01
pressure[innode_3] 7.9132302861147537e+01
pressure[innode_4] 81.01325
pressure[innode_5] 8.0966698672237058e+01
pressure[innode_6] 73.6977659577313
pressure[innode_7] 81.01325
pressure[innode_8] 8.0329359771335731e+01
pressure[source_1] 81.01325
pressure[source_2] 81.01325
pressure[source_3] 81.01325
pressure[sink_1] 4.5460880154791376e+01
pressure[sink_2] 7.6615132525272884e+01
pressure[sink_3] 8.0329359771335731e+01
pressure[sink_4] 5.6714310101967463e+01
pressure[sink_5] 5.2206094985538208e+01
pressure[sink_6] 4.7561957765178747e+01
pressure[sink_7] 4.6985035486188210e+01
pressure[sink_8] 5.3742450130522059e+01
pressure[sink_9] 5.3881912910941459e+01
pressure[sink_10] 7.5023329768335770e+01
pressure[sink_11] 7.4871628460732225e+01
pressure[sink_12] 1.0132500000000007e+00
pressure[sink_13] 7.3672447621815621e+01
pressure[sink_14] 7.3693495914893859e+01
pressure[sink_15] 7.4102987464840112e+01
pressure[sink_16] 7.3849978625914545e+01
pressure[sink_17] 5.4359535325935681e+01
pressure[sink_18] 4.9994302568952413e+01
pressure[sink_19] 7.9303205279365983e+01
pressure[sink_20] 5.9793433513381046e+01
pressure[sink_21] 2.9767767927871702e+00
pressure[sink_22] 4.6524649297146382e+01
pressure[sink_23] 8.0164641759675945e+01
pressure[sink_24] 3.2189882395653378e+00
pressure[sink_25] 73.6977659577313
pressure[sink_26] 6.1291496762666725e+01
pressure[sink_27] 8.0405110434103634e+01
pressure[sink_28] 7.6734119750119362e+01
pressure[sink_29] 7.7029402023736537e+01
interdiction[source_1,sink_3] 0
interdiction[innode_1,sink_16] 0
interdiction[innode_6,sink_13] 0
interdiction[sink_13,sink_14] 0
interdiction[sink_14,sink_10] 0
interdiction[sink_25,sink_26] 0
interdiction[sink_26,sink_9] 0
interdiction[sink_9,sink_18] 0
interdiction[sink_26,sink_4] 0
interdiction[sink_4,sink_20] 0
interdiction[sink_18,sink_6] 0
interdiction[sink_25,innode_8] 0
interdiction[sink_6,sink_7] 0
interdiction[sink_6,sink_22] 0
interdiction[sink_7,sink_24] 0
interdiction[sink_22,sink_1] 0
interdiction[sink_24,sink_21] 0
interdiction[sink_21,sink_12] 0
interdiction[sink_7,sink_5] 0
interdiction[sink_5,sink_17] 0
interdiction[sink_17,sink_4] 0
interdiction[sink_17,sink_8] 0
interdiction[sink_3,sink_23] 0
interdiction[sink_8,sink_20] 1
interdiction[sink_25,sink_20] 0
interdiction[sink_25,sink_15] 0
interdiction[sink_15,sink_29] 0
interdiction[sink_29,sink_28] 0
interdiction[sink_29,sink_2] 0
interdiction[sink_2,sink_15] 1
interdiction[sink_29,innode_7] 0
interdiction[innode_4,sink_19] 0
interdiction[sink_19,innode_3] 0
interdiction[innode_4,innode_5] 0
interdiction[sink_27,innode_5] 0
interdiction[sink_27,sink_19] 0
interdiction[sink_10,sink_11] 0
interdiction[sink_10,innode_2] 1
interdiction[sink_10,innode_3] 0
interdiction[innode_6,sink_25] 0
interdiction[sink_11,innode_1] 0
interdiction[sink_19,innode_2] 0
interdiction[source_3,innode_4] 0
interdiction[source_2,innode_7] 0
interdiction[sink_3,innode_8] 0
WCcheckFlow[source_1,sink_3] 39
WCcheckFlow[innode_1,sink_16] 1
WCcheckFlow[innode_6,sink_13] 13
WCcheckFlow[sink_13,sink_14] 12
WCcheckFlow[sink_14,sink_10] 11
WCcheckFlow[sink_25,sink_26] 15
WCcheckFlow[sink_26,sink_9] 12
WCcheckFlow[sink_9,sink_18] 11
WCcheckFlow[sink_26,sink_4] 2
WCcheckFlow[sink_4,sink_20] 1
WCcheckFlow[sink_18,sink_6] 10
WCcheckFlow[sink_25,innode_8] -36
WCcheckFlow[sink_6,sink_7] 7
WCcheckFlow[sink_6,sink_22] 2
WCcheckFlow[sink_7,sink_24] 3
WCcheckFlow[sink_22,sink_1] 1
WCcheckFlow[sink_24,sink_21] 2
WCcheckFlow[sink_21,sink_12] 1
WCcheckFlow[sink_7,sink_5] 3
WCcheckFlow[sink_5,sink_17] 2
WCcheckFlow[sink_17,sink_4] 0
WCcheckFlow[sink_17,sink_8] 1
WCcheckFlow[sink_3,sink_23] 1
WCcheckFlow[sink_8,sink_20] 0
WCcheckFlow[sink_25,sink_20] 0
WCcheckFlow[sink_25,sink_15] 6
WCcheckFlow[sink_15,sink_29] 5
WCcheckFlow[sink_29,sink_28] 1
WCcheckFlow[sink_29,sink_2] 1
WCcheckFlow[sink_2,sink_15] 0
WCcheckFlow[sink_29,innode_7] 2
WCcheckFlow[innode_4,sink_19] -4
WCcheckFlow[sink_19,innode_3] -6
WCcheckFlow[innode_4,innode_5] 2
WCcheckFlow[sink_27,innode_5] -1
WCcheckFlow[sink_27,sink_19] 0
WCcheckFlow[sink_10,sink_11] 3
WCcheckFlow[sink_10,innode_2] 0
WCcheckFlow[sink_10,innode_3] 7
WCcheckFlow[innode_6,sink_25] -14
WCcheckFlow[sink_11,innode_1] 2
WCcheckFlow[sink_19,innode_2] 1
WCcheckFlow[source_3,innode_4] -1
WCcheckFlow[source_2,innode_7] -1
WCcheckFlow[sink_3,innode_8] 37
